NAME : portcgen-17-30
COMMENT : portcgen N=17, seed=30
TYPE : TSP
DIMENSION : 17
EDGE_WEIGHT_TYPE : EUC_2D
NODE_COORD_SECTION
1 289387 302989
2 -458913 -434243
3 111379 -390923
4 -72414 -537915
5 511962 441247
6 348969 -142825
7 -226535 167893
8 213689 38790
9 101718 -40016
10 -1239 -405738
11 -15902 117097
12 -283768 703892
13 -87619 -168572
14 237968 184405
15 -49123 -273750
16 -388772 263220
17 -119198 -116227
